
&control
    calculation = 'scf'
    pseudo_dir = './'
    prefix = 'd'
    outdir = './'
    nstep = 100
    wf_collect = .true.
    verbosity = 'high'
/

&system
    ibrav = 4
    a = 3.1804152595
    c = 2.00000e+01
    nat = 3
    ntyp = 2
    ecutwfc = 50
    occupations = 'fixed'
    input_dft = 'pbe'
    starting_magnetization(1)=0.01
    starting_magnetization(2)=0.01
    noncolin                 = .TRUE.
    lspinorb                 = .TRUE.
    tot_charge = 0
/

&electrons
    diagonalization = 'david'
    diago_thr_init = 1e-6
    mixing_mode = 'plain'
    mixing_beta = 0.7
    conv_thr =  1e-9
    electron_maxstep = 200
    diago_full_acc = .true.
/

ATOMIC_SPECIES
Mo 95.9600   Mo_ONCV_PBE_FR-1.0.upf
S  32.0600   S_ONCV_PBE_FR-1.1.upf

ATOMIC_POSITIONS (angstrom)
Mo     0.001720428        -0.000261307         3.020250797
S      1.591346502         0.917342544         1.456984282
S      1.592797279         0.918367922         4.581565380

K_POINTS automatic
18 18 1 0 0 0



