&BANDS
 outdir='./',
 prefix = 'd',
 filband = 'bands.dat',
/
